<number of tasks>
50

<cycle time>
1000

<order strength>
0.597


<task times>
1 196
2 98
3 152
4 211
5 46
6 283
7 130
8 139
9 70
10 175
11 178
12 83
13 110
14 55
15 129
16 111
17 217
18 257
19 125
20 210
21 47
22 98
23 145
24 293
25 309
26 160
27 82
28 211
29 191
30 87
31 274
32 206
33 171
34 155
35 155
36 192
37 181
38 46
39 121
40 78
41 153
42 66
43 192
44 216
45 123
46 232
47 88
48 157
49 25
50 71

<precedence relations>
1,6
2,6
3,6
4,6
5,6
5,7
5,8
6,9
6,10
6,11
6,12
6,13
6,14
6,15
7,32
8,15
8,17
9,18
9,26
10,16
10,19
11,16
11,17
11,29
12,16
12,17
13,17
13,22
14,30
15,16
15,18
15,19
16,32
17,30
18,30
19,20
19,21
20,22
20,23
20,24
20,25
20,27
20,31
21,22
21,23
21,24
21,26
21,28
22,32
23,32
24,30
25,30
26,30
27,29
28,31
28,48
29,32
30,33
30,34
30,35
30,36
30,37
30,38
30,39
31,47
32,40
32,41
32,42
32,43
32,44
34,47
37,46
37,50
39,50
40,46
42,47
44,45
44,47
45,48
46,48
47,49
47,50

<end>
